275 5
10 10 10 10 10 

0 0 0 0 0 0 4 2 14 26 38 
0 0 0 0 0 0 4 3 7 11 12 
7 1 0 0 0 0 2 10 4 
5 9 0 0 0 0 2 9 5 
6 5 0 0 0 0 2 6 128 
6 4 0 0 0 0 1 8 
1 5 0 0 0 0 1 8 
9 9 0 0 0 0 1 13 
5 8 0 0 0 0 1 13 
9 3 0 0 0 0 1 13 
10 4 0 0 0 0 1 13 
3 2 0 0 0 0 1 13 
0 0 0 0 0 0 1 50 
0 0 0 0 0 0 3 15 16 17 
9 1 0 0 0 0 4 24 19 18 197 
9 9 0 0 0 0 3 24 20 19 
1 6 0 0 0 0 3 24 23 21 
10 4 0 0 0 0 1 20 
4 3 0 0 0 0 2 23 22 
2 5 0 0 0 0 1 21 
8 6 0 0 0 0 1 22 
10 6 0 0 0 0 1 25 
10 6 0 0 0 0 1 25 
9 4 0 0 0 0 1 25 
0 0 0 0 0 0 1 50 
0 0 0 0 0 0 1 27 
6 0 3 0 0 0 3 30 29 28 
8 0 3 0 0 0 2 32 31 
9 0 6 0 0 0 2 32 31 
9 0 5 0 0 0 1 31 
2 0 3 0 0 0 2 34 33 
1 0 5 0 0 0 3 34 33 82 
4 0 10 0 0 0 2 36 35 
6 0 8 0 0 0 2 36 35 
7 0 4 0 0 0 1 37 
9 0 3 0 0 0 1 37 
0 0 0 0 0 0 1 50 
0 0 0 0 0 0 2 39 41 
5 0 0 1 0 0 2 40 178 
5 0 0 6 0 0 3 45 43 42 
4 0 0 7 0 0 2 45 42 
3 0 0 8 0 0 2 46 44 
3 0 0 7 0 0 2 48 46 
7 0 0 4 0 0 2 48 47 
9 0 0 2 0 0 2 48 47 
7 0 0 4 0 0 1 47 
10 0 0 6 0 0 1 49 
2 0 0 5 0 0 1 49 
0 0 0 0 0 0 1 50 
0 0 0 0 0 0 4 51 63 75 87 
0 0 0 0 0 0 4 52 56 57 58 
3 0 0 0 1 0 1 53 
2 0 0 0 4 0 2 61 54 
9 0 0 0 2 0 2 60 55 
9 0 0 0 6 0 1 59 
9 0 0 0 6 0 1 60 
10 0 0 0 5 0 1 59 
9 0 0 0 9 0 1 59 
6 0 0 0 7 0 1 62 
2 0 0 0 2 0 2 62 190 
1 0 0 0 8 0 1 62 
0 0 0 0 0 0 1 99 
0 0 0 0 0 0 2 64 68 
6 0 0 0 0 1 4 73 72 66 65 
4 0 0 0 0 3 3 71 69 84 
7 0 0 0 0 9 1 67 
6 0 0 0 0 9 1 69 
10 0 0 0 0 5 1 69 
6 0 0 0 0 6 1 70 
7 0 0 0 0 4 1 74 
8 0 0 0 0 1 1 74 
6 0 0 0 0 6 1 74 
6 0 0 0 0 6 1 74 
0 0 0 0 0 0 1 99 
0 0 0 0 0 0 2 76 78 
5 0 0 0 0 1 3 80 79 77 
7 0 0 0 0 10 2 82 81 
1 0 0 0 0 4 2 82 81 
8 0 0 0 0 6 2 83 82 
1 0 0 0 0 5 3 83 82 240 
5 0 0 0 0 1 2 85 83 
4 0 0 0 0 6 2 85 84 
10 0 0 0 0 8 1 84 
2 0 0 0 0 4 1 86 
5 0 0 0 0 5 1 86 
0 0 0 0 0 0 1 99 
0 0 0 0 0 0 4 88 91 92 93 
6 0 1 0 0 0 2 97 89 
6 0 7 0 0 0 1 90 
2 0 4 0 0 0 2 96 94 
2 0 3 0 0 0 2 97 96 
3 0 4 0 0 0 2 94 229 
10 0 4 0 0 0 1 94 
5 0 9 0 0 0 1 95 
2 0 8 0 0 0 1 98 
1 0 6 0 0 0 1 98 
3 0 4 0 0 0 1 98 
0 0 0 0 0 0 1 99 
0 0 0 0 0 0 4 100 112 124 136 
0 0 0 0 0 0 3 101 104 110 
9 0 0 1 0 0 2 106 102 
7 0 0 4 0 0 2 109 103 
1 0 0 6 0 0 2 105 225 
6 0 0 6 0 0 1 105 
2 0 0 5 0 0 1 107 
10 0 0 5 0 0 1 108 
9 0 0 6 0 0 1 111 
3 0 0 6 0 0 1 111 
10 0 0 6 0 0 1 111 
9 0 0 5 0 0 1 111 
0 0 0 0 0 0 1 148 
0 0 0 0 0 0 4 113 117 121 122 
5 0 0 0 0 1 1 114 
7 0 0 0 0 6 2 119 115 
3 0 0 0 0 9 1 116 
9 0 0 0 0 4 1 118 
10 0 0 0 0 4 1 120 
4 0 0 0 0 7 1 123 
8 0 0 0 0 4 1 123 
9 0 0 0 0 4 1 123 
8 0 0 0 0 5 1 123 
6 0 0 0 0 6 1 123 
0 0 0 0 0 0 1 148 
0 0 0 0 0 0 2 125 129 
3 0 1 0 0 0 3 131 128 126 
10 0 8 0 0 0 2 134 127 
1 0 5 0 0 0 2 132 130 
1 0 4 0 0 0 2 132 130 
3 0 7 0 0 0 2 133 131 
9 0 7 0 0 0 1 133 
8 0 6 0 0 0 1 132 
7 0 2 0 0 0 1 135 
7 0 4 0 0 0 1 135 
8 0 6 0 0 0 1 135 
0 0 0 0 0 0 1 148 
0 0 0 0 0 0 4 137 140 145 146 
1 0 0 0 0 1 2 144 138 
8 0 0 0 0 6 2 143 139 
6 0 0 0 0 4 1 141 
4 0 0 0 0 5 1 141 
3 0 0 0 0 6 1 142 
5 0 0 0 0 3 1 147 
3 0 0 0 0 8 1 147 
9 0 0 0 0 7 1 147 
10 0 0 0 0 4 1 147 
1 0 0 0 0 6 1 147 
0 0 0 0 0 0 1 148 
0 0 0 0 0 0 4 149 171 183 205 
0 0 0 0 0 0 4 150 153 157 169 
9 0 1 0 0 1 2 160 151 
9 0 6 0 0 6 2 168 152 
8 0 2 0 0 5 4 167 163 158 154 
2 0 5 0 0 7 4 167 163 161 160 
9 0 6 0 0 5 2 166 155 
8 0 4 0 0 5 1 156 
2 0 5 0 0 3 2 165 159 
4 0 5 0 0 2 2 166 159 
1 0 7 0 0 4 1 159 
9 0 5 0 0 4 1 161 
9 0 5 0 0 5 2 166 164 
9 0 5 0 0 8 1 162 
5 0 4 0 0 5 1 164 
5 0 4 0 0 3 1 165 
7 0 5 0 0 7 1 170 
6 0 2 0 0 5 1 170 
9 0 9 0 0 5 1 170 
10 0 6 0 0 6 1 170 
9 0 5 0 0 7 1 170 
1 0 9 0 0 7 1 170 
0 0 0 0 0 0 1 275 
0 0 0 0 0 0 5 172 173 175 177 181 
2 1 0 0 0 0 2 180 176 
6 2 0 0 0 0 1 174 
4 3 0 0 0 0 1 176 
2 6 0 0 0 0 1 176 
9 4 0 0 0 0 1 178 
2 6 0 0 0 0 1 178 
5 5 0 0 0 0 1 179 
3 8 0 0 0 0 1 182 
1 8 0 0 0 0 1 182 
2 7 0 0 0 0 1 182 
0 0 0 0 0 0 4 227 239 251 263 
0 0 0 0 0 0 1 184 
6 2 0 0 1 0 2 187 185 
5 6 0 0 6 0 1 186 
5 9 0 0 8 0 1 188 
5 2 0 0 4 0 1 188 
4 4 0 0 2 0 2 190 189 
10 3 0 0 7 0 3 199 195 191 
9 5 0 0 7 0 4 196 195 194 193 
10 3 0 0 6 0 3 196 193 192 
6 7 0 0 5 0 1 194 
8 10 0 0 3 0 4 203 202 201 200 
2 7 0 0 3 0 3 202 201 197 
5 5 0 0 7 0 2 202 200 
7 5 0 0 6 0 1 198 
5 2 0 0 4 0 1 200 
4 4 0 0 2 0 1 200 
7 3 0 0 7 0 1 201 
5 5 0 0 3 0 1 204 
7 4 0 0 5 0 1 204 
4 7 0 0 7 0 1 204 
3 7 0 0 7 0 1 204 
0 0 0 0 0 0 1 275 
0 0 0 0 0 0 4 206 223 224 225 
5 0 0 1 3 0 1 207 
2 0 0 6 2 0 3 222 221 208 
6 0 0 3 4 0 3 220 219 209 
6 0 0 2 7 0 2 218 210 
3 0 0 5 7 0 2 217 211 
4 0 0 7 5 0 2 216 212 
3 0 0 1 3 0 1 213 
1 0 0 6 3 0 1 214 
9 0 0 7 2 0 1 215 
2 0 0 2 5 0 1 226 
6 0 0 5 10 0 1 226 
5 0 0 6 4 0 1 226 
7 0 0 7 8 0 1 226 
9 0 0 5 5 0 1 226 
3 0 0 8 7 0 1 226 
6 0 0 3 4 0 1 226 
5 0 0 7 7 0 1 226 
8 0 0 5 5 0 1 226 
7 0 0 8 4 0 1 226 
8 0 0 6 5 0 1 226 
0 0 0 0 0 0 1 275 
0 0 0 0 0 0 2 228 229 
8 1 0 0 0 0 2 231 230 
8 3 0 0 0 0 2 232 231 
4 6 0 0 0 0 3 237 233 232 
2 8 0 0 0 0 3 237 235 233 
9 6 0 0 0 0 2 235 234 
10 6 0 0 0 0 1 234 
3 4 0 0 0 0 1 236 
7 6 0 0 0 0 1 236 
1 4 0 0 0 0 1 238 
6 6 0 0 0 0 1 238 
0 0 0 0 0 0 1 275 
0 0 0 0 0 0 2 240 242 
7 0 0 1 0 0 3 245 243 241 
3 0 0 10 0 0 2 247 246 
6 0 0 4 0 0 2 247 246 
4 0 0 5 0 0 1 244 
2 0 0 5 0 0 2 249 247 
3 0 0 6 0 0 2 249 247 
1 0 0 5 0 0 2 249 248 
9 0 0 3 0 0 1 248 
1 0 0 5 0 0 1 250 
2 0 0 6 0 0 1 250 
0 0 0 0 0 0 1 275 
0 0 0 0 0 0 2 252 253 
10 0 0 0 0 5 3 258 257 254 
3 0 0 0 0 3 3 261 257 255 
5 0 0 0 0 6 3 261 259 255 
3 0 0 0 0 5 1 256 
8 0 0 0 0 5 1 260 
3 0 0 0 0 3 1 259 
6 0 0 0 0 3 1 259 
8 0 0 0 0 10 1 262 
10 0 0 0 0 4 1 262 
9 0 0 0 0 6 1 262 
0 0 0 0 0 0 1 275 
0 0 0 0 0 0 2 264 266 
10 0 0 1 0 0 2 273 265 
2 0 0 4 0 0 3 272 269 267 
6 0 0 7 0 0 2 271 268 
6 0 0 7 0 0 1 268 
4 0 0 9 0 0 1 270 
1 0 0 3 0 0 1 271 
10 0 0 8 0 0 1 274 
5 0 0 6 0 0 1 274 
2 0 0 1 0 0 1 274 
8 0 0 4 0 0 1 274 
0 0 0 0 0 0 1 275 
0 0 0 0 0 0 0 
